(set-logic QF_LIA)
(set-info :ran/ran2.smt2)
(set-info :smt-lib-version 2.0)
(declare-fun x1 () Int)
(declare-fun x2 () Int)
(declare-fun x3 () Int)
(declare-fun x4 () Int)
(assert (<= (+ (* (- 3) x1) (* 4 x2) (* 3 x3) (* (- 7) x4) ) 26))
(assert (<= (+ (* (- 5) x1) (* 8 x2) (* (- 5) x3) (* (- 1) x4) ) (- 287)))
(assert (<= (+ (* (- 1) x1) (* (- 2) x2) (* (- 8) x3) (* 2 x4) ) 400))
(assert (<= (+ (* (- 8) x1) (* (- 4) x2) (* (- 10) x3) (* 1 x4) ) 81))
(assert (<= (+ (* (- 7) x1) (* (- 10) x2) (* (- 5) x3) (* 2 x4) ) (- 532)))
(assert (<= (+ (* (- 7) x1) (* (- 9) x2) (* (- 8) x3) (* 10 x4) ) (- 46)))
(assert (<= (+ (* 2 x1) (* (- 4) x2) (* 1 x3) (* (- 5) x4) ) (- 523)))
(assert (<= (+ (* 1 x1) (* (- 2) x2) (* (- 5) x3) (* 4 x4) ) 456))
(assert (<= (+ (* 1 x1) (* 0 x2) (* 0 x3) (* 0 x4) ) 562))
(assert (<= (+ (* (- 1) x1) (* 0 x2) (* 0 x3) (* 0 x4) ) 562))
(assert (<= (+ (* 0 x1) (* 1 x2) (* 0 x3) (* 0 x4) ) 562))
(assert (<= (+ (* 0 x1) (* (- 1) x2) (* 0 x3) (* 0 x4) ) 562))
(assert (<= (+ (* 0 x1) (* 0 x2) (* 1 x3) (* 0 x4) ) 562))
(assert (<= (+ (* 0 x1) (* 0 x2) (* (- 1) x3) (* 0 x4) ) 562))
(assert (<= (+ (* 0 x1) (* 0 x2) (* 0 x3) (* 1 x4) ) 562))
(assert (<= (+ (* 0 x1) (* 0 x2) (* 0 x3) (* (- 1) x4) ) 562))
